SCIP Status        : solving was interrupted [time limit reached]
Total Time         :    3600.02
  solving          :    3600.01
  presolving       :       0.42 (included in solving)
  reading          :       0.01
  copying          :       1.11 (36 #copies) (minimal 0.00, maximal 0.09, average 0.03)
Original Problem   :
  Problem name     : bbbenchmark/pw05_100.1.cut
  Variables        : 101 (100 binary, 0 integer, 0 implicit integer, 1 continuous)
  Constraints      : 1 initial, 1 maximal
  Objective        : minimize, 1 non-zeros (abs.min = 1, abs.max = 1)
Presolved Problem  :
  Problem name     : t_bbbenchmark/pw05_100.1.cut
  Variables        : 1757 (100 binary, 0 integer, 1640 implicit integer, 17 continuous)
  Constraints      : 1689 initial, 10388 maximal
  Objective        : minimize, 1 non-zeros (abs.min = 1, abs.max = 1)
  Nonzeros         : 8427 constraint, 202 clique table
Presolvers         :   ExecTime  SetupTime  Calls  FixedVars   AggrVars   ChgTypes  ChgBounds   AddHoles    DelCons    AddCons   ChgSides   ChgCoefs
  boundshift       :       0.00       0.00      0          0          0          0          0          0          0          0          0          0
  convertinttobin  :       0.00       0.00      0          0          0          0          0          0          0          0          0          0
  domcol           :       0.00       0.00      1          0          0          0          0          0          0          0          0          0
  dualagg          :       0.00       0.00      0          0          0          0          0          0          0          0          0          0
  dualcomp         :       0.00       0.00      1          0          0          0          0          0          0          0          0          0
  dualinfer        :       0.00       0.00      0          0          0          0          0          0          0          0          0          0
  dualsparsify     :       0.00       0.00      1          0          0          0          0          0          0          0          0          0
  gateextraction   :       0.00       0.00      0          0          0          0          0          0          0          0          0          0
  implics          :       0.00       0.00      2          0          0          0          0          0          0          0          0          0
  inttobinary      :       0.00       0.00      0          0          0          0          0          0          0          0          0          0
  qpkktref         :       0.00       0.00      0          0          0          0          0          0          0          0          0          0
  redvub           :       0.00       0.00      0          0          0          0          0          0          0          0          0          0
  sparsify         :       0.00       0.00      1          0          0          0          0          0          0          0          0          0
  stuffing         :       0.00       0.00      0          0          0          0          0          0          0          0          0          0
  trivial          :       0.00       0.00      4          0          0          0          0          0          0          0          0          0
  tworowbnd        :       0.00       0.00      0          0          0          0          0          0          0          0          0          0
  dualfix          :       0.00       0.00      4          0          0          0          0          0          0          0          0          0
  genvbounds       :       0.00       0.00      0          0          0          0          0          0          0          0          0          0
  probing          :       0.28       0.00      1          0          0          0          0          0          0          0          0          0
  pseudoobj        :       0.00       0.00      1          0          0          0          1          0          0          0          0          0
  symmetry         :       0.00       0.00      0          0          0          0          0          0          0          0          0          0
  vbounds          :       0.00       0.00      1          0          0          0          0          0          0          0          0          0
  varbound         :       0.00       0.00      2          0          0          0          0          0          0          0          0          0
  and              :       0.01       0.00      2          0          0          0          0          0          0          0          0          0
  linear           :       0.00       0.00      2          0          0          0          0          0          0          0          0          0
  logicor          :       0.00       0.00      0          0          0          0          0          0          0          0          0          0
  bounddisjunction :       0.00       0.00      0          0          0          0          0          0          0          0          0          0
  nonlinear        :       0.12       0.01      5          0          0          0          1          0          0       1688          0          0
  benders          :       0.00       0.00      0          0          0          0          0          0          0          0          0          0
  components       :       0.00       0.00      1          0          0          0          0          0          0          0          0          0
  root node        :          -          -      -          0          -          -         13          -          -          -          -          -
Constraints        :     Number  MaxNumber  #Separate #Propagate    #EnfoLP    #EnfoRelax  #EnfoPS    #Check   #ResProp    Cutoffs    DomReds       Cuts    Applied      Conss   Children
  benderslp        :          0          0          0          0      34429          0          0       7413          0          0          0          0          0          0          0
  integral         :          0          0          0          0      34429          0          0       7413          0          0        263          0          0        251      68492
  varbound         :         16         16         64     366574          6          0          0         58          0          0      21738          0          0          0          0
  and              :       1640       1640      47766     409820          8          0          0         45     359293          2     278741       7093       6276          0          0
  linear           :         33+        54         64     409867          8          0          0         43        531          7      99787          0          0          0          0
  logicor          :          0+      8541          0      63034          0          0          0          0         94        247         19          0          0          0          0
  bounddisjunction :          0+       351          0      22933          0          0          0          0          1          3          1          0          0          0          0
  benders          :          0          0          0          0          8          0          0         34          0          0          0          0          0          0          0
  countsols        :          0          0          0          0          8          0          0         34          0          0          0          0          0          0          0
  components       :          0          0          0          0          0          0          0          0          0          0          0          0          0          0          0
Constraint Timings :  TotalTime  SetupTime   Separate  Propagate     EnfoLP     EnfoPS     EnfoRelax   Check    ResProp    SB-Prop
  benderslp        :       0.04       0.00       0.00       0.00       0.04       0.00       0.00       0.00       0.00       0.00
  integral         :      40.36       0.00       0.00       0.00      40.36       0.00       0.00       0.00       0.00       0.00
  varbound         :       0.39       0.00       0.00       0.39       0.00       0.00       0.00       0.00       0.00       0.00
  and              :      48.90       0.00      31.18      16.99       0.00       0.00       0.00       0.00       0.32       0.41
  linear           :       2.25       0.00       0.07       2.16       0.00       0.00       0.00       0.00       0.00       0.02
  logicor          :       4.47       0.00       0.00       4.46       0.00       0.00       0.00       0.00       0.00       0.01
  bounddisjunction :       0.33       0.00       0.00       0.33       0.00       0.00       0.00       0.00       0.00       0.00
  benders          :       0.00       0.00       0.00       0.00       0.00       0.00       0.00       0.00       0.00       0.00
  countsols        :       0.00       0.00       0.00       0.00       0.00       0.00       0.00       0.00       0.00       0.00
  components       :       0.09       0.00       0.00       0.09       0.00       0.00       0.00       0.00       0.00       0.00
Propagators        : #Propagate   #ResProp    Cutoffs    DomReds
  dualfix          :          4          0          0          0
  genvbounds       :          0          0          0          0
  nlobbt           :          0          0          0          0
  obbt             :          0          0          0          0
  probing          :          0          0          0          0
  pseudoobj        :     145803          0          0         33
  redcost          :      88804          0          0      23036
  rootredcost      :         14          0          0          0
  symmetry         :          0          0          0          0
  vbounds          :      51296          0          0          0
Propagator Timings :  TotalTime  SetupTime   Presolve  Propagate    ResProp    SB-Prop
  dualfix          :       0.00       0.00       0.00       0.00       0.00       0.00
  genvbounds       :       0.29       0.00       0.00       0.29       0.00       0.00
  nlobbt           :       0.00       0.00       0.00       0.00       0.00       0.00
  obbt             :       0.00       0.00       0.00       0.00       0.00       0.00
  probing          :       0.28       0.00       0.28       0.00       0.00       0.00
  pseudoobj        :       0.39       0.00       0.00       0.39       0.00       0.00
  redcost          :       5.35       0.00       0.00       5.35       0.00       0.00
  rootredcost      :       0.29       0.00       0.00       0.29       0.00       0.00
  symmetry         :       0.20       0.00       0.00       0.20       0.00       0.00
  vbounds          :       0.19       0.00       0.00       0.19       0.00       0.00
Conflict Analysis  :       Time      Calls    Success    DomReds  Conflicts   Literals    Reconvs ReconvLits   Dualrays   Nonzeros   LP Iters   (pool size: [10000,10000])
  propagation      :       0.00        254        196          -        312       67.4          0        0.0          -          -          -
  infeasible LP    :       0.08         24         24          -       1118      151.3          0        0.0         60      150.4          0
  bound exceed. LP :      16.66       3952       3735          -     103795      106.8          1       47.0          0        0.0      44588
  strong branching :       0.00          0          0          -          0        0.0          0        0.0          -          -          0
  pseudo solution  :       0.00          0          0          -          0        0.0          0        0.0          -          -          -
  applied globally :       0.50          -          -          0      22803      117.7          -          -         60          -          -
  applied locally  :          -          -          -          0          0        0.0          -          -          0          -          -
Separators         :   ExecTime  SetupTime      Calls  RootCalls    Cutoffs    DomReds  FoundCuts ViaPoolAdd  DirectAdd    Applied ViaPoolApp  DirectApp      Conss
  cut pool         :       6.50          -      22202         86          -          -      44769    1658998          -          -          -          -          -    (maximal pool size:       2896)
  aggregation      :     517.26       0.00       8868         64          0          0        490        230          0         73         73          0          0
  > cmir           :          -          -          -          -          -          -          -        217          0         66         66          0          -
  > flowcover      :          -          -          -          -          -          -          -         13          0          7          7          0          -
  > knapsackcover  :          -          -          -          -          -          -          -          0          0          0          0          0          -
  cgmip            :       0.00       0.00          0          0          0          0          0          0          0          0          0          0          0
  clique           :       0.01       0.00         64         64          0          0          0          0          0          0          0          0          0
  closecuts        :       0.00       0.00          0          0          0          0          0          0          0          0          0          0          0
  convexproj       :       0.00       0.00          0          0          0          0          0          0          0          0          0          0          0
  disjunctive      :       0.00       0.00          0          0          0          0          0          0          0          0          0          0          0
  eccuts           :       0.00       0.00          0          0          0          0          0          0          0          0          0          0          0
  gauge            :       0.00       0.00          0          0          0          0          0          0          0          0          0          0          0
  gomory           :       0.00       0.00          0          0          0          0          0          0          0          0          0          0          0
  > gomorymi       :          -          -          -          -          -          -          -          0          0          0          0          0          -
  > strongcg       :          -          -          -          -          -          -          -          0          0          0          0          0          -
  impliedbounds    :       0.50       0.00       8868         64          0          0         48         15          0         10         10          0          0
  interlattice     :       0.00       0.00          0          0          0          0          0          0          0          0          0          0          0
  interminor       :       0.00       0.00          0          0          0          0          0          0          0          0          0          0          0
  intersub         :       0.68       0.00         30         30          0          0         30          0         30         30          0         30          0
  intobj           :       0.00       0.00          0          0          0          0          0          0          0          0          0          0          0
  mcf              :       0.00       0.00          1          1          0          0          0          0          0          0          0          0          0
  minor            :       0.03       0.00          0          0          0          0          0          0          0          0          0          0          0
  mixing           :       0.06       0.00       8868         64          0          0          0          0          0          0          0          0          0
  oddcycle         :       0.00       0.00          0          0          0          0          0          0          0          0          0          0          0
  rapidlearning    :       0.02       0.00          0          0          0          0          0          0          0          0          0          0          0
  rlt              :       0.00       0.00         10         10          0          0          0          0          0          0          0          0          0
  zerohalf         :      77.67       0.00       7657         20          0          0      44231    1658753          0     150857     150857          0          0
Cutselectors       :   ExecTime  SetupTime      Calls  RootCalls   Selected     Forced   Filtered  RootSelec   RootForc   RootFilt 
  hybrid           :       1.62       0.00      15251         62     157246          0    1508875        220          0          2
Pricers            :   ExecTime  SetupTime      Calls       Vars
  problem variables:       0.00          -          0          0
Branching Rules    :   ExecTime  SetupTime   BranchLP  BranchExt   BranchPS    Cutoffs    DomReds       Cuts      Conss   Children
  allfullstrong    :       0.00       0.00          0          0          0          0          0          0          0          0
  cloud            :       0.00       0.00          0          0          0          0          0          0          0          0
  distribution     :       0.00       0.00          0          0          0          0          0          0          0          0
  fullstrong       :       0.00       0.00          0          0          0          0          0          0          0          0
  inference        :       0.00       0.00          0          0          0          0          0          0          0          0
  leastinf         :       0.00       0.00          0          0          0          0          0          0          0          0
  lookahead        :       0.00       0.00          0          0          0          0          0          0          0          0
  mostinf          :       0.00       0.00          0          0          0          0          0          0          0          0
  multaggr         :       0.00       0.00          0          0          0          0          0          0          0          0
  nodereopt        :       0.00       0.00          0          0          0          0          0          0          0          0
  pscost           :       0.00       0.00          0          0          0          0          0          0          0          0
  random           :       0.00       0.00          0          0          0          0          0          0          0          0
  relpscost        :      40.20       0.00      34421          0          0          0        263          0        252      68492
  vanillafullstrong:       0.00       0.00          0          0          0          0          0          0          0          0
Primal Heuristics  :   ExecTime  SetupTime      Calls      Found       Best
  LP solutions     :       0.00          -          -          8          8
  relax solutions  :       0.00          -          -          0          0
  pseudo solutions :       0.00          -          -          0          0
  strong branching :       0.02          -          -          0          0
  actconsdiving    :       0.00       0.00          0          0          0
  adaptivediving   :       4.34       0.00         25          0          0
  alns             :       3.15       0.00         22         13         12
  bound            :       0.00       0.00          0          0          0
  clique           :       0.02       0.00          1          0          0
  coefdiving       :       0.00       0.00          0          0          0
  completesol      :       0.00       0.00          0          0          0
  conflictdiving   :      84.32       0.00        522          0          0
  crossover        :       0.12       0.00          2          0          0
  dins             :       0.00       0.00          0          0          0
  distributiondivin:      65.80       0.00        255          0          0
  dps              :       0.00       0.00          0          0          0
  dualval          :       0.00       0.00          0          0          0
  farkasdiving     :       0.01       0.00          0          0          0
  feaspump         :       0.53       0.00          1          1          1
  fixandinfer      :       0.00       0.00          0          0          0
  fracdiving       :      61.37       0.00        303          0          0
  gins             :       0.03       0.00          0          0          0
  guideddiving     :      60.20       0.00        322          0          0
  indicator        :       0.04       0.00          0          0          0
  indicatordiving  :       0.00       0.00          0          0          0
  intdiving        :       0.00       0.00          0          0          0
  intshifting      :       0.72       0.00         49          0          0
  linesearchdiving :      52.76       0.00        328          0          0
  localbranching   :       0.00       0.00          0          0          0
  locks            :       0.01       0.00          1          0          0
  lpface           :       0.11       0.00          0          0          0
  mpec             :     488.42       0.00         11          0          0
  multistart       :       0.00       0.00          0          0          0
  mutation         :       0.00       0.00          0          0          0
  nlpdiving        :      26.04       0.00          3          0          0
  objpscostdiving  :      61.51       0.00         34          8          0
  octane           :       0.00       0.00          0          0          0
  ofins            :       0.06       0.00          0          0          0
  oneopt           :       0.06       0.00         19          0          0
  padm             :       0.00       0.00          0          0          0
  proximity        :       0.00       0.00          0          0          0
  pscostdiving     :      56.29       0.00        271          1          1
  randrounding     :       0.71       0.00       7375          0          0
  rens             :       0.00       0.00          0          0          0
  reoptsols        :       0.00       0.00          0          0          0
  repair           :       0.00       0.00          0          0          0
  rins             :       1.37       0.00         11          0          0
  rootsoldiving    :      37.58       0.00         23          1          0
  rounding         :       0.94       0.00       2990          0          0
  shiftandpropagate:       0.00       0.00          0          0          0
  shifting         :      40.20       0.00       8163          4          3
  simplerounding   :       0.06       0.00          0          0          0
  subnlp           :      60.18       0.00          0          0          0
  trivial          :       0.01       0.00          2          2          2
  trivialnegation  :       0.00       0.00          0          0          0
  trustregion      :       0.00       0.00          0          0          0
  trysol           :       0.09       0.00          0          0          0
  twoopt           :       0.00       0.00          0          0          0
  undercover       :       0.56       0.00          1          1          1
  vbounds          :       0.00       0.00          0          0          0
  veclendiving     :      53.54       0.00        348          0          0
  zeroobj          :       0.00       0.00          0          0          0
  zirounding       :       0.42       0.00       1000          0          0
  other solutions  :          -          -          -          0          -
Diving (single)    :      Calls      Nodes   LP Iters Backtracks  Conflicts   MinDepth   MaxDepth   AvgDepth  RoundSols  NLeafSols  MinSolDpt  MaxSolDpt  AvgSolDpt
  actconsdiving    :          0          -          -          -          -          -          -          -          -          -          -          -          -
  coefdiving       :          0          -          -          -          -          -          -          -          -          -          -          -          -
  conflictdiving   :        522      21131     602994        557      34119         45         81       60.7          0          -          -          -          -
  distributiondivin:        255       9843     410754        290       8704         44         68       56.5          0          -          -          -          -
  farkasdiving     :          0          -          -          -          -          -          -          -          -          -          -          -          -
  fracdiving       :        303      59502     407398         77       1400         61        648      215.9          0          -          -          -          -
  guideddiving     :        322      53071     407622         60       1902         62        498      184.8          0          -          -          -          -
  indicatordiving  :          0          -          -          -          -          -          -          -          -          -          -          -          -
  linesearchdiving :        328      14965     406273        333      18127         46         91       64.8          0          -          -          -          -
  pscostdiving     :        271      11595     423698        276      10882         51         78       61.0          0          1         78         78       78.0
  veclendiving     :        348      14854     405591        354      26091         52         82       61.8          0          -          -          -          -
Diving (adaptive)  :      Calls      Nodes   LP Iters Backtracks  Conflicts   MinDepth   MaxDepth   AvgDepth  RoundSols  NLeafSols  MinSolDpt  MaxSolDpt  AvgSolDpt
  actconsdiving    :          4        175       6068          4        133         52         63       58.0          0          -          -          -          -
  coefdiving       :          7        329       8160          4        442         53         92       65.1          0          -          -          -          -
  conflictdiving   :          0          -          -          -          -          -          -          -          -          -          -          -          -
  distributiondivin:          0          -          -          -          -          -          -          -          -          -          -          -          -
  farkasdiving     :          0          -          -          -          -          -          -          -          -          -          -          -          -
  fracdiving       :          0          -          -          -          -          -          -          -          -          -          -          -          -
  guideddiving     :          3        164       2389          1          9         63         95       81.3          0          -          -          -          -
  indicatordiving  :          0          -          -          -          -          -          -          -          -          -          -          -          -
  linesearchdiving :          4        211       6056          3        231         50         78       67.2          0          -          -          -          -
  pscostdiving     :          2         80       2453          2         61         63         64       63.5          0          -          -          -          -
  veclendiving     :          5        207       6846          4        344         54         61       57.0          0          -          -          -          -
Neighborhoods      :      Calls  SetupTime  SolveTime SolveNodes       Sols       Best       Exp3  EpsGreedy        UCB TgtFixRate  Opt  Inf Node Stal  Sol  Usr Othr Actv
  rens             :          2       0.14       0.03          2          0          0    0.00000   -1.00000    0.54862      0.550    0    2    0    0    0    0    0    1
  rins             :          2       0.15       0.11         83          0          0    0.00000   -1.00000    0.47458      0.850    0    1    0    1    0    0    0    1
  mutation         :          3       0.22       0.68        391          3          3    0.00000   -1.00000    0.50239      0.662    0    1    0    1    1    0    0    1
  localbranching   :          2       0.13       0.07         79          0          0    0.00000   -1.00000    0.47458      0.850    0    1    0    1    0    0    0    1
  crossover        :          1       0.03       0.02         17          0          0    0.00000   -1.00000    0.55383      0.700    0    1    0    0    0    0    0    1
  proximity        :          2       0.05       0.30        199          2          1    0.00000   -1.00000    0.49919      0.850    1    0    0    1    0    0    0    1
  zeroobjective    :          2       0.13       0.05         76          0          0    0.00000   -1.00000    0.47357      0.850    0    1    0    1    0    0    0    1
  dins             :          8       0.39       0.50        444          8          8    0.00000   -1.00000    0.55830      0.836    0    0    0    6    2    0    0    1
  trustregion      :          0       0.00       0.00          0          0          0    0.00000   -1.00000    1.00000      0.900    0    0    0    0    0    0    0    0
Expressions        :   #IntEval  IntEvalTi   #RevProp  RevPropTi    DomReds    Cutoffs  #Estimate  EstimTime  Branching  #Simplify SimplifyTi Simplified
  pow              :          0       0.00          0       0.00          0          0          0       0.00          0          0       0.00          0
  prod             :       9900       0.01          0       0.00          0          0          0       0.00          0       6590       0.00          0
  sum              :          8       0.00          2       0.00          0          0          0       0.00          0          3       0.00          2
  var              :       6080       0.01          0       0.00          0          0          0       0.00          0      15139       0.01          0
  varidx           :          0       0.00          0       0.00          0          0          0       0.00          0          0       0.00          0
LP                 :       Time      Calls Iterations  Iter/call   Iter/sec  Time-0-It Calls-0-It    ItLimit
  primal LP        :     112.26       7326          0       0.00       0.00     112.23       7326
  dual LP          :    1552.78      71574    7870138     117.63    5068.42       2.01       4666
  lex dual LP      :       0.00          0          0       0.00          -
  barrier LP       :       0.00          0          0       0.00          -       0.00          0
  resolve instable :       0.00          0          0       0.00          -
  diving/probing LP:     467.82      11562    3551271     307.15    7591.11
  strong branching :      27.15       1390     192900     138.78    7104.97          -          -         69
    (at root node) :          -         19       4491     236.37          -
  conflict analysis:       7.50       4508      44588       9.89    5945.07
NLP relaxation     :
  solve time       :      25.95 (9 calls)
  convexity        :  nonconvex (49 linear rows, 0 convex ineq., 0 nonconvex ineq., 1640 nonlinear eq. or two-sided ineq.)
NLP Solvers        :  #Problems  ProblemTi    #Solves  SolveTime      #Iter  Time/Iter      #Okay #TimeLimit #IterLimit #LObjLimit #Interrupt  #NumError #EvalError  #OutOfMem #LicenseEr #OtherTerm   #GlobOpt    #LocOpt  #Feasible #LocInfeas #GlobInfea #Unbounded   #Unknown
  ipopt            :         12       3.17         30     519.37       1921       0.27         27          0          3          0          0          0          0          0          0          0          0          7          1         18          0          0          4
B&B Tree           :
  number of runs   :          1
  nodes            :      51506 (34246 internal, 17260 leaves)
  feasible leaves  :          8
  infeas. leaves   :          9
  objective leaves :      17242
  nodes (total)    :      51506 (34246 internal, 17260 leaves)
  nodes left       :      16803
  max depth        :         56
  max depth (total):         56
  backtracks       :      12316 (23.9%)
  early backtracks :          0 (0.0%)
  nodes exc. ref.  :          0 (0.0%)
  delayed cutoffs  :          1
  repropagations   :       1490 (232 domain reductions, 0 cutoffs)
  avg switch length:       6.39
  switching time   :     125.52
Estim. Tree Size   :     103380
Estimation Tree    : 68493 nodes (51690 visited, 34246 internal, 17444 leaves, 16803 open), weight: 0.0000 completed 0.0790
Estimations        :      estim      value      trend resolution     smooth
  wbe              : 15346374475081          -          -          -          -
  tree-profile     :         -1          -          -          -          -
  gap              :     547392    0.68263    0.00004         32     578989
  tree-weight      :     103380    0.00000    0.00000         32      98443
  leaf-frequency   :     103380    0.33746   -0.00035         32     113270
  ssg              :    1505177    0.87526   -0.00004         32    1654017
  open-nodes       :     103380 16803.00000   55.97924         32      98443
Root Node          :
  First LP value   : -5.47070707070708e+00
  First LP Iters   :       1636 (10225.00 Iter/sec)
  First LP Time    :       0.16
  Final Dual Bound : -5.24997431839276e+00
  Final Root Iters :       3345
  Root LP Estimate : -1.83576029965300e+00
Solution           :
  Solutions found  :         39 (28 improvements)
  First Solution   : +1.00000000000000e+05   (in run 1, after 0 nodes, 0.04 seconds, depth 0, found by <trivial>)
  Gap First Sol.   :   infinite
  Gap Last Sol.    :      50.05 %
  Primal Bound     : -3.16888888888889e+00   (in run 1, after 31200 nodes, 1800.92 seconds, depth 40, found by <alns>)
  Dual Bound       : -4.64218667062773e+00
  Gap              :      46.49 %
Integrals          :      Total       Avg%
  primal-dual      :  126619.64      35.17
  primal-ref       :          -          - (not evaluated)
  dual-ref         :          -          - (not evaluated)
